c File: flat50_3_0.col
c
c SOURCE: Joseph Culberson (joe@cs.ualberta.ca)
c DESCRIPTION: Quasi-random coloring problem
c              generated with flatness = 0
c                             probability = 0.139
c                             known coloring = 3
c                             random seed = 1904
c              Creation Date:  Tue Jun  9 12:20:49 1998
c Maximum degree = 7 Minimum degree = 0
c p edge 50 115
c cnf created by edge2cnf
p cnf 150 545
-1 -2 0
-1 -3 0
-2 -3 0
1 2 3 0
-4 -5 0
-4 -6 0
-5 -6 0
4 5 6 0
-7 -8 0
-7 -9 0
-8 -9 0
7 8 9 0
-10 -11 0
-10 -12 0
-11 -12 0
10 11 12 0
-13 -14 0
-13 -15 0
-14 -15 0
13 14 15 0
-16 -17 0
-16 -18 0
-17 -18 0
16 17 18 0
-19 -20 0
-19 -21 0
-20 -21 0
19 20 21 0
-22 -23 0
-22 -24 0
-23 -24 0
22 23 24 0
-25 -26 0
-25 -27 0
-26 -27 0
25 26 27 0
-28 -29 0
-28 -30 0
-29 -30 0
28 29 30 0
-31 -32 0
-31 -33 0
-32 -33 0
31 32 33 0
-34 -35 0
-34 -36 0
-35 -36 0
34 35 36 0
-37 -38 0
-37 -39 0
-38 -39 0
37 38 39 0
-40 -41 0
-40 -42 0
-41 -42 0
40 41 42 0
-43 -44 0
-43 -45 0
-44 -45 0
43 44 45 0
-46 -47 0
-46 -48 0
-47 -48 0
46 47 48 0
-49 -50 0
-49 -51 0
-50 -51 0
49 50 51 0
-52 -53 0
-52 -54 0
-53 -54 0
52 53 54 0
-55 -56 0
-55 -57 0
-56 -57 0
55 56 57 0
-58 -59 0
-58 -60 0
-59 -60 0
58 59 60 0
-61 -62 0
-61 -63 0
-62 -63 0
61 62 63 0
-64 -65 0
-64 -66 0
-65 -66 0
64 65 66 0
-67 -68 0
-67 -69 0
-68 -69 0
67 68 69 0
-70 -71 0
-70 -72 0
-71 -72 0
70 71 72 0
-73 -74 0
-73 -75 0
-74 -75 0
73 74 75 0
-76 -77 0
-76 -78 0
-77 -78 0
76 77 78 0
-79 -80 0
-79 -81 0
-80 -81 0
79 80 81 0
-82 -83 0
-82 -84 0
-83 -84 0
82 83 84 0
-85 -86 0
-85 -87 0
-86 -87 0
85 86 87 0
-88 -89 0
-88 -90 0
-89 -90 0
88 89 90 0
-91 -92 0
-91 -93 0
-92 -93 0
91 92 93 0
-94 -95 0
-94 -96 0
-95 -96 0
94 95 96 0
-97 -98 0
-97 -99 0
-98 -99 0
97 98 99 0
-100 -101 0
-100 -102 0
-101 -102 0
100 101 102 0
-103 -104 0
-103 -105 0
-104 -105 0
103 104 105 0
-106 -107 0
-106 -108 0
-107 -108 0
106 107 108 0
-109 -110 0
-109 -111 0
-110 -111 0
109 110 111 0
-112 -113 0
-112 -114 0
-113 -114 0
112 113 114 0
-115 -116 0
-115 -117 0
-116 -117 0
115 116 117 0
-118 -119 0
-118 -120 0
-119 -120 0
118 119 120 0
-121 -122 0
-121 -123 0
-122 -123 0
121 122 123 0
-124 -125 0
-124 -126 0
-125 -126 0
124 125 126 0
-127 -128 0
-127 -129 0
-128 -129 0
127 128 129 0
-130 -131 0
-130 -132 0
-131 -132 0
130 131 132 0
-133 -134 0
-133 -135 0
-134 -135 0
133 134 135 0
-136 -137 0
-136 -138 0
-137 -138 0
136 137 138 0
-139 -140 0
-139 -141 0
-140 -141 0
139 140 141 0
-142 -143 0
-142 -144 0
-143 -144 0
142 143 144 0
-145 -146 0
-145 -147 0
-146 -147 0
145 146 147 0
-148 -149 0
-148 -150 0
-149 -150 0
148 149 150 0
-58 -1 0
-59 -2 0
-60 -3 0
-76 -1 0
-77 -2 0
-78 -3 0
-94 -1 0
-95 -2 0
-96 -3 0
-118 -1 0
-119 -2 0
-120 -3 0
-130 -1 0
-131 -2 0
-132 -3 0
-142 -1 0
-143 -2 0
-144 -3 0
-61 -4 0
-62 -5 0
-63 -6 0
-97 -4 0
-98 -5 0
-99 -6 0
-103 -4 0
-104 -5 0
-105 -6 0
-112 -4 0
-113 -5 0
-114 -6 0
-142 -4 0
-143 -5 0
-144 -6 0
-97 -7 0
-98 -8 0
-99 -9 0
-52 -10 0
-53 -11 0
-54 -12 0
-79 -10 0
-80 -11 0
-81 -12 0
-133 -10 0
-134 -11 0
-135 -12 0
-61 -13 0
-62 -14 0
-63 -15 0
-82 -13 0
-83 -14 0
-84 -15 0
-142 -13 0
-143 -14 0
-144 -15 0
-148 -13 0
-149 -14 0
-150 -15 0
-73 -16 0
-74 -17 0
-75 -18 0
-82 -16 0
-83 -17 0
-84 -18 0
-100 -16 0
-101 -17 0
-102 -18 0
-109 -16 0
-110 -17 0
-111 -18 0
-118 -16 0
-119 -17 0
-120 -18 0
-142 -16 0
-143 -17 0
-144 -18 0
-52 -19 0
-53 -20 0
-54 -21 0
-73 -19 0
-74 -20 0
-75 -21 0
-97 -19 0
-98 -20 0
-99 -21 0
-106 -19 0
-107 -20 0
-108 -21 0
-145 -19 0
-146 -20 0
-147 -21 0
-148 -19 0
-149 -20 0
-150 -21 0
-52 -22 0
-53 -23 0
-54 -24 0
-61 -22 0
-62 -23 0
-63 -24 0
-82 -22 0
-83 -23 0
-84 -24 0
-88 -22 0
-89 -23 0
-90 -24 0
-124 -22 0
-125 -23 0
-126 -24 0
-145 -22 0
-146 -23 0
-147 -24 0
-79 -25 0
-80 -26 0
-81 -27 0
-112 -25 0
-113 -26 0
-114 -27 0
-124 -25 0
-125 -26 0
-126 -27 0
-133 -25 0
-134 -26 0
-135 -27 0
-52 -28 0
-53 -29 0
-54 -30 0
-97 -28 0
-98 -29 0
-99 -30 0
-124 -28 0
-125 -29 0
-126 -30 0
-136 -28 0
-137 -29 0
-138 -30 0
-73 -31 0
-74 -32 0
-75 -33 0
-76 -31 0
-77 -32 0
-78 -33 0
-106 -31 0
-107 -32 0
-108 -33 0
-115 -31 0
-116 -32 0
-117 -33 0
-136 -31 0
-137 -32 0
-138 -33 0
-55 -34 0
-56 -35 0
-57 -36 0
-58 -34 0
-59 -35 0
-60 -36 0
-70 -34 0
-71 -35 0
-72 -36 0
-112 -37 0
-113 -38 0
-114 -39 0
-124 -37 0
-125 -38 0
-126 -39 0
-58 -40 0
-59 -41 0
-60 -42 0
-61 -40 0
-62 -41 0
-63 -42 0
-73 -40 0
-74 -41 0
-75 -42 0
-115 -40 0
-116 -41 0
-117 -42 0
-118 -40 0
-119 -41 0
-120 -42 0
-136 -40 0
-137 -41 0
-138 -42 0
-139 -40 0
-140 -41 0
-141 -42 0
-55 -43 0
-56 -44 0
-57 -45 0
-76 -43 0
-77 -44 0
-78 -45 0
-88 -43 0
-89 -44 0
-90 -45 0
-106 -43 0
-107 -44 0
-108 -45 0
-109 -43 0
-110 -44 0
-111 -45 0
-139 -43 0
-140 -44 0
-141 -45 0
-79 -46 0
-80 -47 0
-81 -48 0
-100 -46 0
-101 -47 0
-102 -48 0
-118 -46 0
-119 -47 0
-120 -48 0
-55 -49 0
-56 -50 0
-57 -51 0
-58 -49 0
-59 -50 0
-60 -51 0
-64 -49 0
-65 -50 0
-66 -51 0
-79 -49 0
-80 -50 0
-81 -51 0
-136 -49 0
-137 -50 0
-138 -51 0
-148 -49 0
-149 -50 0
-150 -51 0
-121 -52 0
-122 -53 0
-123 -54 0
-148 -52 0
-149 -53 0
-150 -54 0
-112 -55 0
-113 -56 0
-114 -57 0
-124 -55 0
-125 -56 0
-126 -57 0
-139 -55 0
-140 -56 0
-141 -57 0
-103 -58 0
-104 -59 0
-105 -60 0
-103 -61 0
-104 -62 0
-105 -63 0
-139 -61 0
-140 -62 0
-141 -63 0
-112 -64 0
-113 -65 0
-114 -66 0
-118 -64 0
-119 -65 0
-120 -66 0
-136 -64 0
-137 -65 0
-138 -66 0
-142 -64 0
-143 -65 0
-144 -66 0
-127 -67 0
-128 -68 0
-129 -69 0
-127 -70 0
-128 -71 0
-129 -72 0
-130 -70 0
-131 -71 0
-132 -72 0
-145 -70 0
-146 -71 0
-147 -72 0
-106 -73 0
-107 -74 0
-108 -75 0
-142 -73 0
-143 -74 0
-144 -75 0
-145 -73 0
-146 -74 0
-147 -75 0
-115 -76 0
-116 -77 0
-117 -78 0
-136 -76 0
-137 -77 0
-138 -78 0
-112 -79 0
-113 -80 0
-114 -81 0
-115 -79 0
-116 -80 0
-117 -81 0
-124 -79 0
-125 -80 0
-126 -81 0
-109 -85 0
-110 -86 0
-111 -87 0
-115 -85 0
-116 -86 0
-117 -87 0
-118 -88 0
-119 -89 0
-120 -90 0
-133 -88 0
-134 -89 0
-135 -90 0
-142 -88 0
-143 -89 0
-144 -90 0
-124 -94 0
-125 -95 0
-126 -96 0
-130 -94 0
-131 -95 0
-132 -96 0
-133 -94 0
-134 -95 0
-135 -96 0
-145 -94 0
-146 -95 0
-147 -96 0
-109 -97 0
-110 -98 0
-111 -99 0
-112 -97 0
-113 -98 0
-114 -99 0
-115 -97 0
-116 -98 0
-117 -99 0
-106 -100 0
-107 -101 0
-108 -102 0
-127 -100 0
-128 -101 0
-129 -102 0
